array [1..2] of int: X_INTRODUCED_1_ = [1,-1];
var {112,121,212,221,222,223}: Vb21:: output_var;
var {111,112,113,121,131,211,212,221,222,223,322}: Vb22:: output_var;
var {111,112,113,121,131,211,212,221,222,223}: Vb23:: output_var;
var {111,112,113,121,131,211,212,221,222,223,322}: Vb24:: output_var;
var {111,112,113,121,131,211,212,221,222,223,322}: Vb25:: output_var;
var {111,113,131,211,221,223}: Vg21:: output_var;
var {111,112,113,121,131,211,212,221,222,223}: Vg22:: output_var;
var {111,113,131,211,221,223}: Vg23:: output_var;
var {111,112,113,121,131,211,212,221,222,223}: Vr21:: output_var;
var {111,112,113,121,131,211,212,221,222,223,322}: Vr22:: output_var;
var {111,112,113,121,131,211,212,221,222,223,322}: Vr23:: output_var;
var 1..3: X_INTRODUCED_2_ ::var_is_introduced :: is_defined_var;
var 1..2: X_INTRODUCED_4_ ::var_is_introduced :: is_defined_var;
var bool: X_INTRODUCED_6_ ::var_is_introduced :: is_defined_var;
var {11,12,13,21,22,32}: X_INTRODUCED_7_ ::var_is_introduced :: is_defined_var;
var 1..3: X_INTRODUCED_8_ ::var_is_introduced ;
var {11,12,21,22}: X_INTRODUCED_9_ ::var_is_introduced :: is_defined_var;
var 1..3: X_INTRODUCED_10_ ::var_is_introduced ;
var bool: X_INTRODUCED_11_ ::var_is_introduced :: is_defined_var;
var 1..3: X_INTRODUCED_12_ ::var_is_introduced ;
var 1..3: X_INTRODUCED_13_ ::var_is_introduced ;
var bool: X_INTRODUCED_14_ ::var_is_introduced :: is_defined_var;
var 1..2: X_INTRODUCED_15_ ::var_is_introduced :: is_defined_var;
var bool: X_INTRODUCED_16_ ::var_is_introduced :: is_defined_var;
var {11,12,13,21,22}: X_INTRODUCED_17_ ::var_is_introduced :: is_defined_var;
var 1..3: X_INTRODUCED_18_ ::var_is_introduced ;
var bool: X_INTRODUCED_19_ ::var_is_introduced :: is_defined_var;
var 1..3: X_INTRODUCED_20_ ::var_is_introduced ;
var bool: X_INTRODUCED_22_ ::var_is_introduced :: is_defined_var;
var 1..3: X_INTRODUCED_23_ ::var_is_introduced :: is_defined_var;
var bool: X_INTRODUCED_24_ ::var_is_introduced :: is_defined_var;
var {11,12,13,21,22,32}: X_INTRODUCED_25_ ::var_is_introduced :: is_defined_var;
var 1..3: X_INTRODUCED_26_ ::var_is_introduced ;
var bool: X_INTRODUCED_28_ ::var_is_introduced :: is_defined_var;
var 1..3: X_INTRODUCED_29_ ::var_is_introduced ;
var bool: X_INTRODUCED_30_ ::var_is_introduced :: is_defined_var;
var 1..3: X_INTRODUCED_31_ ::var_is_introduced :: is_defined_var;
var bool: X_INTRODUCED_32_ ::var_is_introduced :: is_defined_var;
var {11,12,13,21,22,32}: X_INTRODUCED_33_ ::var_is_introduced :: is_defined_var;
var 1..3: X_INTRODUCED_34_ ::var_is_introduced ;
var bool: X_INTRODUCED_35_ ::var_is_introduced :: is_defined_var;
var 1..3: X_INTRODUCED_36_ ::var_is_introduced ;
var bool: X_INTRODUCED_38_ ::var_is_introduced :: is_defined_var;
var bool: X_INTRODUCED_39_ ::var_is_introduced :: is_defined_var;
var bool: X_INTRODUCED_40_ ::var_is_introduced :: is_defined_var;
var bool: X_INTRODUCED_41_ ::var_is_introduced :: is_defined_var;
var bool: X_INTRODUCED_43_ ::var_is_introduced :: is_defined_var;
var bool: X_INTRODUCED_44_ ::var_is_introduced :: is_defined_var;
var bool: X_INTRODUCED_45_ ::var_is_introduced :: is_defined_var;
var bool: X_INTRODUCED_46_ ::var_is_introduced :: is_defined_var;
var bool: X_INTRODUCED_47_ ::var_is_introduced :: is_defined_var;
var bool: X_INTRODUCED_48_ ::var_is_introduced :: is_defined_var;
var bool: X_INTRODUCED_49_ ::var_is_introduced :: is_defined_var;
var bool: X_INTRODUCED_50_ ::var_is_introduced :: is_defined_var;
var bool: X_INTRODUCED_51_ ::var_is_introduced :: is_defined_var;
var bool: X_INTRODUCED_53_ ::var_is_introduced :: is_defined_var;
var bool: X_INTRODUCED_54_ ::var_is_introduced :: is_defined_var;
var bool: X_INTRODUCED_55_ ::var_is_introduced :: is_defined_var;
var bool: X_INTRODUCED_56_ ::var_is_introduced :: is_defined_var;
var bool: X_INTRODUCED_57_ ::var_is_introduced :: is_defined_var;
var bool: X_INTRODUCED_58_ ::var_is_introduced :: is_defined_var;
var bool: X_INTRODUCED_59_ ::var_is_introduced :: is_defined_var;
var bool: X_INTRODUCED_60_ ::var_is_introduced :: is_defined_var;
var bool: X_INTRODUCED_61_ ::var_is_introduced :: is_defined_var;
var bool: X_INTRODUCED_62_ ::var_is_introduced :: is_defined_var;
var bool: X_INTRODUCED_63_ ::var_is_introduced :: is_defined_var;
var bool: X_INTRODUCED_64_ ::var_is_introduced :: is_defined_var;
var bool: X_INTRODUCED_67_ ::var_is_introduced :: is_defined_var;
var bool: X_INTRODUCED_68_ ::var_is_introduced :: is_defined_var;
var bool: X_INTRODUCED_69_ ::var_is_introduced :: is_defined_var;
var bool: X_INTRODUCED_70_ ::var_is_introduced :: is_defined_var;
var bool: X_INTRODUCED_71_ ::var_is_introduced :: is_defined_var;
var bool: X_INTRODUCED_72_ ::var_is_introduced :: is_defined_var;
var bool: X_INTRODUCED_73_ ::var_is_introduced :: is_defined_var;
var bool: X_INTRODUCED_74_ ::var_is_introduced :: is_defined_var;
var bool: X_INTRODUCED_75_ ::var_is_introduced :: is_defined_var;
var bool: X_INTRODUCED_78_ ::var_is_introduced :: is_defined_var;
var bool: X_INTRODUCED_79_ ::var_is_introduced :: is_defined_var;
var bool: X_INTRODUCED_80_ ::var_is_introduced :: is_defined_var;
var bool: X_INTRODUCED_81_ ::var_is_introduced :: is_defined_var;
var bool: X_INTRODUCED_82_ ::var_is_introduced :: is_defined_var;
var bool: X_INTRODUCED_83_ ::var_is_introduced :: is_defined_var;
var bool: X_INTRODUCED_84_ ::var_is_introduced :: is_defined_var;
var bool: X_INTRODUCED_87_ ::var_is_introduced :: is_defined_var;
var bool: X_INTRODUCED_90_ ::var_is_introduced :: is_defined_var;
var 1..2: X_INTRODUCED_95_ ::var_is_introduced :: is_defined_var;
var 1..2: X_INTRODUCED_96_ ::var_is_introduced :: is_defined_var;
var bool: X_INTRODUCED_97_ ::var_is_introduced :: is_defined_var;
var {11,12,13,21,22}: X_INTRODUCED_98_ ::var_is_introduced :: is_defined_var;
var 1..3: X_INTRODUCED_99_ ::var_is_introduced ;
var {11,13,21,22}: X_INTRODUCED_100_ ::var_is_introduced :: is_defined_var;
var 1..3: X_INTRODUCED_101_ ::var_is_introduced ;
var bool: X_INTRODUCED_102_ ::var_is_introduced :: is_defined_var;
var 1..3: X_INTRODUCED_103_ ::var_is_introduced ;
var 1..3: X_INTRODUCED_104_ ::var_is_introduced ;
var bool: X_INTRODUCED_106_ ::var_is_introduced :: is_defined_var;
var 1..2: X_INTRODUCED_107_ ::var_is_introduced :: is_defined_var;
var bool: X_INTRODUCED_108_ ::var_is_introduced :: is_defined_var;
var {11,13,21,22}: X_INTRODUCED_109_ ::var_is_introduced :: is_defined_var;
var 1..3: X_INTRODUCED_110_ ::var_is_introduced ;
var bool: X_INTRODUCED_111_ ::var_is_introduced :: is_defined_var;
var 1..3: X_INTRODUCED_112_ ::var_is_introduced ;
var bool: X_INTRODUCED_114_ ::var_is_introduced :: is_defined_var;
var bool: X_INTRODUCED_115_ ::var_is_introduced :: is_defined_var;
var bool: X_INTRODUCED_117_ ::var_is_introduced :: is_defined_var;
var bool: X_INTRODUCED_119_ ::var_is_introduced :: is_defined_var;
var bool: X_INTRODUCED_120_ ::var_is_introduced :: is_defined_var;
var bool: X_INTRODUCED_123_ ::var_is_introduced :: is_defined_var;
var bool: X_INTRODUCED_127_ ::var_is_introduced :: is_defined_var;
var bool: X_INTRODUCED_129_ ::var_is_introduced :: is_defined_var;
var bool: X_INTRODUCED_130_ ::var_is_introduced :: is_defined_var;
var bool: X_INTRODUCED_131_ ::var_is_introduced :: is_defined_var;
var bool: X_INTRODUCED_133_ ::var_is_introduced :: is_defined_var;
var bool: X_INTRODUCED_135_ ::var_is_introduced :: is_defined_var;
var bool: X_INTRODUCED_136_ ::var_is_introduced :: is_defined_var;
var 1..3: X_INTRODUCED_141_ ::var_is_introduced :: is_defined_var;
var 1..2: X_INTRODUCED_142_ ::var_is_introduced :: is_defined_var;
var bool: X_INTRODUCED_143_ ::var_is_introduced :: is_defined_var;
var {11,12,13,21,22,32}: X_INTRODUCED_144_ ::var_is_introduced :: is_defined_var;
var 1..3: X_INTRODUCED_145_ ::var_is_introduced ;
var {11,12,13,21,22}: X_INTRODUCED_146_ ::var_is_introduced :: is_defined_var;
var 1..3: X_INTRODUCED_147_ ::var_is_introduced ;
var bool: X_INTRODUCED_148_ ::var_is_introduced :: is_defined_var;
var 1..3: X_INTRODUCED_149_ ::var_is_introduced ;
var 1..3: X_INTRODUCED_150_ ::var_is_introduced ;
var bool: X_INTRODUCED_152_ ::var_is_introduced :: is_defined_var;
var 1..3: X_INTRODUCED_153_ ::var_is_introduced :: is_defined_var;
var bool: X_INTRODUCED_155_ ::var_is_introduced :: is_defined_var;
var {11,12,13,21,22,32}: X_INTRODUCED_156_ ::var_is_introduced :: is_defined_var;
var 1..3: X_INTRODUCED_157_ ::var_is_introduced ;
var bool: X_INTRODUCED_158_ ::var_is_introduced :: is_defined_var;
var 1..3: X_INTRODUCED_159_ ::var_is_introduced ;
var bool: X_INTRODUCED_160_ ::var_is_introduced :: is_defined_var;
var bool: X_INTRODUCED_161_ ::var_is_introduced :: is_defined_var;
var bool: X_INTRODUCED_163_ ::var_is_introduced :: is_defined_var;
var bool: X_INTRODUCED_164_ ::var_is_introduced :: is_defined_var;
var bool: X_INTRODUCED_165_ ::var_is_introduced :: is_defined_var;
var bool: X_INTRODUCED_167_ ::var_is_introduced :: is_defined_var;
var bool: X_INTRODUCED_168_ ::var_is_introduced :: is_defined_var;
var bool: X_INTRODUCED_169_ ::var_is_introduced :: is_defined_var;
var bool: X_INTRODUCED_170_ ::var_is_introduced :: is_defined_var;
var bool: X_INTRODUCED_171_ ::var_is_introduced :: is_defined_var;
var bool: X_INTRODUCED_172_ ::var_is_introduced :: is_defined_var;
var bool: X_INTRODUCED_173_ ::var_is_introduced :: is_defined_var;
var bool: X_INTRODUCED_175_ ::var_is_introduced :: is_defined_var;
var bool: X_INTRODUCED_176_ ::var_is_introduced :: is_defined_var;
var bool: X_INTRODUCED_178_ ::var_is_introduced :: is_defined_var;
var bool: X_INTRODUCED_179_ ::var_is_introduced :: is_defined_var;
var bool: X_INTRODUCED_180_ ::var_is_introduced :: is_defined_var;
var bool: X_INTRODUCED_181_ ::var_is_introduced :: is_defined_var;
var bool: X_INTRODUCED_182_ ::var_is_introduced :: is_defined_var;
var bool: X_INTRODUCED_183_ ::var_is_introduced :: is_defined_var;
var bool: X_INTRODUCED_184_ ::var_is_introduced :: is_defined_var;
var bool: X_INTRODUCED_185_ ::var_is_introduced :: is_defined_var;
var bool: X_INTRODUCED_186_ ::var_is_introduced :: is_defined_var;
var bool: X_INTRODUCED_187_ ::var_is_introduced :: is_defined_var;
var bool: X_INTRODUCED_188_ ::var_is_introduced :: is_defined_var;
var bool: X_INTRODUCED_189_ ::var_is_introduced :: is_defined_var;
var bool: X_INTRODUCED_190_ ::var_is_introduced :: is_defined_var;
var bool: X_INTRODUCED_191_ ::var_is_introduced :: is_defined_var;
var bool: X_INTRODUCED_192_ ::var_is_introduced :: is_defined_var;
var bool: X_INTRODUCED_193_ ::var_is_introduced :: is_defined_var;
var bool: X_INTRODUCED_194_ ::var_is_introduced :: is_defined_var;
var bool: X_INTRODUCED_195_ ::var_is_introduced :: is_defined_var;
var bool: X_INTRODUCED_196_ ::var_is_introduced :: is_defined_var;
var bool: X_INTRODUCED_197_ ::var_is_introduced :: is_defined_var;
var bool: X_INTRODUCED_198_ ::var_is_introduced :: is_defined_var;
var bool: X_INTRODUCED_199_ ::var_is_introduced :: is_defined_var;
var bool: X_INTRODUCED_200_ ::var_is_introduced :: is_defined_var;
array [1..12] of var bool: X_INTRODUCED_66_ ::var_is_introduced  = [X_INTRODUCED_11_,X_INTRODUCED_64_,X_INTRODUCED_63_,X_INTRODUCED_62_,X_INTRODUCED_61_,X_INTRODUCED_47_,X_INTRODUCED_44_,X_INTRODUCED_40_,X_INTRODUCED_35_,X_INTRODUCED_32_,X_INTRODUCED_28_,X_INTRODUCED_19_];
array [1..12] of var bool: X_INTRODUCED_77_ ::var_is_introduced  = [X_INTRODUCED_11_,X_INTRODUCED_63_,X_INTRODUCED_62_,X_INTRODUCED_47_,X_INTRODUCED_46_,X_INTRODUCED_44_,X_INTRODUCED_41_,X_INTRODUCED_40_,X_INTRODUCED_38_,X_INTRODUCED_35_,X_INTRODUCED_32_,X_INTRODUCED_19_];
array [1..12] of var bool: X_INTRODUCED_86_ ::var_is_introduced  = [X_INTRODUCED_14_,X_INTRODUCED_73_,X_INTRODUCED_63_,X_INTRODUCED_62_,X_INTRODUCED_59_,X_INTRODUCED_57_,X_INTRODUCED_56_,X_INTRODUCED_49_,X_INTRODUCED_44_,X_INTRODUCED_40_,X_INTRODUCED_32_,X_INTRODUCED_19_];
array [1..12] of var bool: X_INTRODUCED_89_ ::var_is_introduced  = [X_INTRODUCED_11_,X_INTRODUCED_64_,X_INTRODUCED_61_,X_INTRODUCED_53_,X_INTRODUCED_51_,X_INTRODUCED_47_,X_INTRODUCED_46_,X_INTRODUCED_45_,X_INTRODUCED_44_,X_INTRODUCED_40_,X_INTRODUCED_35_,X_INTRODUCED_19_];
array [1..12] of var bool: X_INTRODUCED_92_ ::var_is_introduced  = [X_INTRODUCED_14_,X_INTRODUCED_63_,X_INTRODUCED_62_,X_INTRODUCED_59_,X_INTRODUCED_58_,X_INTRODUCED_56_,X_INTRODUCED_55_,X_INTRODUCED_44_,X_INTRODUCED_40_,X_INTRODUCED_32_,X_INTRODUCED_30_,X_INTRODUCED_19_];
array [1..12] of var bool: X_INTRODUCED_94_ ::var_is_introduced  = [X_INTRODUCED_14_,X_INTRODUCED_73_,X_INTRODUCED_59_,X_INTRODUCED_56_,X_INTRODUCED_53_,X_INTRODUCED_51_,X_INTRODUCED_49_,X_INTRODUCED_45_,X_INTRODUCED_44_,X_INTRODUCED_40_,X_INTRODUCED_30_,X_INTRODUCED_19_];
constraint int_lin_ne(X_INTRODUCED_1_,[Vb21,Vb22],0);
constraint int_lin_ne(X_INTRODUCED_1_,[Vb21,Vb23],0);
constraint int_lin_ne(X_INTRODUCED_1_,[Vb21,Vb24],0);
constraint int_lin_ne(X_INTRODUCED_1_,[Vb21,Vb25],0);
constraint int_lin_ne(X_INTRODUCED_1_,[Vb21,Vg21],0);
constraint int_lin_ne(X_INTRODUCED_1_,[Vb21,Vg22],0);
constraint int_lin_ne(X_INTRODUCED_1_,[Vb21,Vg23],0);
constraint int_lin_ne(X_INTRODUCED_1_,[Vb21,Vr21],0);
constraint int_lin_ne(X_INTRODUCED_1_,[Vb21,Vr22],0);
constraint int_lin_ne(X_INTRODUCED_1_,[Vb21,Vr23],0);
constraint int_lin_ne(X_INTRODUCED_1_,[Vb22,Vb23],0);
constraint int_lin_ne(X_INTRODUCED_1_,[Vb22,Vb24],0);
constraint int_lin_ne(X_INTRODUCED_1_,[Vb22,Vb25],0);
constraint int_lin_ne(X_INTRODUCED_1_,[Vb22,Vg21],0);
constraint int_lin_ne(X_INTRODUCED_1_,[Vb22,Vg22],0);
constraint int_lin_ne(X_INTRODUCED_1_,[Vb22,Vg23],0);
constraint int_lin_ne(X_INTRODUCED_1_,[Vb22,Vr21],0);
constraint int_lin_ne(X_INTRODUCED_1_,[Vb22,Vr22],0);
constraint int_lin_ne(X_INTRODUCED_1_,[Vb22,Vr23],0);
constraint int_lin_ne(X_INTRODUCED_1_,[Vb23,Vb24],0);
constraint int_lin_ne(X_INTRODUCED_1_,[Vb23,Vb25],0);
constraint int_lin_ne(X_INTRODUCED_1_,[Vb23,Vg21],0);
constraint int_lin_ne(X_INTRODUCED_1_,[Vb23,Vg22],0);
constraint int_lin_ne(X_INTRODUCED_1_,[Vb23,Vg23],0);
constraint int_lin_ne(X_INTRODUCED_1_,[Vb23,Vr21],0);
constraint int_lin_ne(X_INTRODUCED_1_,[Vb23,Vr22],0);
constraint int_lin_ne(X_INTRODUCED_1_,[Vb23,Vr23],0);
constraint int_lin_ne(X_INTRODUCED_1_,[Vb24,Vb25],0);
constraint int_lin_ne(X_INTRODUCED_1_,[Vb24,Vg21],0);
constraint int_lin_ne(X_INTRODUCED_1_,[Vb24,Vg22],0);
constraint int_lin_ne(X_INTRODUCED_1_,[Vb24,Vg23],0);
constraint int_lin_ne(X_INTRODUCED_1_,[Vb24,Vr21],0);
constraint int_lin_ne(X_INTRODUCED_1_,[Vb24,Vr22],0);
constraint int_lin_ne(X_INTRODUCED_1_,[Vb24,Vr23],0);
constraint int_lin_ne(X_INTRODUCED_1_,[Vb25,Vg21],0);
constraint int_lin_ne(X_INTRODUCED_1_,[Vb25,Vg22],0);
constraint int_lin_ne(X_INTRODUCED_1_,[Vb25,Vg23],0);
constraint int_lin_ne(X_INTRODUCED_1_,[Vb25,Vr21],0);
constraint int_lin_ne(X_INTRODUCED_1_,[Vb25,Vr22],0);
constraint int_lin_ne(X_INTRODUCED_1_,[Vb25,Vr23],0);
constraint int_lin_ne(X_INTRODUCED_1_,[Vg21,Vg22],0);
constraint int_lin_ne(X_INTRODUCED_1_,[Vg21,Vg23],0);
constraint int_lin_ne(X_INTRODUCED_1_,[Vg21,Vr21],0);
constraint int_lin_ne(X_INTRODUCED_1_,[Vg21,Vr22],0);
constraint int_lin_ne(X_INTRODUCED_1_,[Vg21,Vr23],0);
constraint int_lin_ne(X_INTRODUCED_1_,[Vg22,Vg23],0);
constraint int_lin_ne(X_INTRODUCED_1_,[Vg22,Vr21],0);
constraint int_lin_ne(X_INTRODUCED_1_,[Vg22,Vr22],0);
constraint int_lin_ne(X_INTRODUCED_1_,[Vg22,Vr23],0);
constraint int_lin_ne(X_INTRODUCED_1_,[Vg23,Vr21],0);
constraint int_lin_ne(X_INTRODUCED_1_,[Vg23,Vr22],0);
constraint int_lin_ne(X_INTRODUCED_1_,[Vg23,Vr23],0);
constraint int_lin_ne(X_INTRODUCED_1_,[Vr21,Vr22],0);
constraint int_lin_ne(X_INTRODUCED_1_,[Vr21,Vr23],0);
constraint int_lin_ne(X_INTRODUCED_1_,[Vr22,Vr23],0);
constraint int_div(Vb22,100,X_INTRODUCED_2_):: defines_var(X_INTRODUCED_2_);
constraint int_div(Vb21,100,X_INTRODUCED_4_):: defines_var(X_INTRODUCED_4_);
constraint int_div(Vb22,10,X_INTRODUCED_7_):: defines_var(X_INTRODUCED_7_);
constraint int_mod(X_INTRODUCED_7_,10,X_INTRODUCED_8_);
constraint int_div(Vb21,10,X_INTRODUCED_9_):: defines_var(X_INTRODUCED_9_);
constraint int_mod(X_INTRODUCED_9_,10,X_INTRODUCED_10_);
constraint int_mod(Vb22,10,X_INTRODUCED_12_);
constraint int_mod(Vb21,10,X_INTRODUCED_13_);
constraint int_div(Vb23,100,X_INTRODUCED_15_):: defines_var(X_INTRODUCED_15_);
constraint int_div(Vb23,10,X_INTRODUCED_17_):: defines_var(X_INTRODUCED_17_);
constraint int_mod(X_INTRODUCED_17_,10,X_INTRODUCED_18_);
constraint int_mod(Vb23,10,X_INTRODUCED_20_);
constraint int_div(Vb24,100,X_INTRODUCED_23_):: defines_var(X_INTRODUCED_23_);
constraint int_div(Vb24,10,X_INTRODUCED_25_):: defines_var(X_INTRODUCED_25_);
constraint int_mod(X_INTRODUCED_25_,10,X_INTRODUCED_26_);
constraint int_mod(Vb24,10,X_INTRODUCED_29_);
constraint int_div(Vb25,100,X_INTRODUCED_31_):: defines_var(X_INTRODUCED_31_);
constraint int_div(Vb25,10,X_INTRODUCED_33_):: defines_var(X_INTRODUCED_33_);
constraint int_mod(X_INTRODUCED_33_,10,X_INTRODUCED_34_);
constraint int_mod(Vb25,10,X_INTRODUCED_36_);
constraint array_bool_and(X_INTRODUCED_66_,false);
constraint array_bool_and(X_INTRODUCED_77_,false);
constraint array_bool_and(X_INTRODUCED_86_,false);
constraint array_bool_and(X_INTRODUCED_89_,false);
constraint array_bool_and(X_INTRODUCED_92_,false);
constraint array_bool_and(X_INTRODUCED_94_,false);
constraint array_bool_or([X_INTRODUCED_90_,X_INTRODUCED_87_,X_INTRODUCED_84_,X_INTRODUCED_83_,X_INTRODUCED_82_,X_INTRODUCED_81_,X_INTRODUCED_80_,X_INTRODUCED_79_,X_INTRODUCED_75_,X_INTRODUCED_74_,X_INTRODUCED_72_,X_INTRODUCED_71_,X_INTRODUCED_70_,X_INTRODUCED_68_,X_INTRODUCED_60_,X_INTRODUCED_54_,X_INTRODUCED_50_,X_INTRODUCED_39_],true);
constraint int_div(Vg22,100,X_INTRODUCED_95_):: defines_var(X_INTRODUCED_95_);
constraint int_div(Vg21,100,X_INTRODUCED_96_):: defines_var(X_INTRODUCED_96_);
constraint int_div(Vg22,10,X_INTRODUCED_98_):: defines_var(X_INTRODUCED_98_);
constraint int_mod(X_INTRODUCED_98_,10,X_INTRODUCED_99_);
constraint int_div(Vg21,10,X_INTRODUCED_100_):: defines_var(X_INTRODUCED_100_);
constraint int_mod(X_INTRODUCED_100_,10,X_INTRODUCED_101_);
constraint int_mod(Vg22,10,X_INTRODUCED_103_);
constraint int_mod(Vg21,10,X_INTRODUCED_104_);
constraint int_div(Vg23,100,X_INTRODUCED_107_):: defines_var(X_INTRODUCED_107_);
constraint int_div(Vg23,10,X_INTRODUCED_109_):: defines_var(X_INTRODUCED_109_);
constraint int_mod(X_INTRODUCED_109_,10,X_INTRODUCED_110_);
constraint int_mod(Vg23,10,X_INTRODUCED_112_);
constraint int_lin_eq_reif(X_INTRODUCED_1_,[X_INTRODUCED_107_,X_INTRODUCED_96_],-2,false);
constraint int_lin_eq_reif(X_INTRODUCED_1_,[X_INTRODUCED_107_,X_INTRODUCED_96_],2,false);
constraint array_bool_or([X_INTRODUCED_136_,X_INTRODUCED_131_,X_INTRODUCED_120_,X_INTRODUCED_115_],true);
constraint int_div(Vr22,100,X_INTRODUCED_141_):: defines_var(X_INTRODUCED_141_);
constraint int_div(Vr21,100,X_INTRODUCED_142_):: defines_var(X_INTRODUCED_142_);
constraint int_div(Vr22,10,X_INTRODUCED_144_):: defines_var(X_INTRODUCED_144_);
constraint int_mod(X_INTRODUCED_144_,10,X_INTRODUCED_145_);
constraint int_div(Vr21,10,X_INTRODUCED_146_):: defines_var(X_INTRODUCED_146_);
constraint int_mod(X_INTRODUCED_146_,10,X_INTRODUCED_147_);
constraint int_mod(Vr22,10,X_INTRODUCED_149_);
constraint int_mod(Vr21,10,X_INTRODUCED_150_);
constraint int_div(Vr23,100,X_INTRODUCED_153_):: defines_var(X_INTRODUCED_153_);
constraint int_div(Vr23,10,X_INTRODUCED_156_):: defines_var(X_INTRODUCED_156_);
constraint int_mod(X_INTRODUCED_156_,10,X_INTRODUCED_157_);
constraint int_mod(Vr23,10,X_INTRODUCED_159_);
constraint array_bool_or([X_INTRODUCED_188_,X_INTRODUCED_187_,X_INTRODUCED_184_,X_INTRODUCED_183_,X_INTRODUCED_181_,X_INTRODUCED_180_,X_INTRODUCED_179_,X_INTRODUCED_176_,X_INTRODUCED_173_,X_INTRODUCED_170_,X_INTRODUCED_168_,X_INTRODUCED_161_,X_INTRODUCED_192_,X_INTRODUCED_191_,X_INTRODUCED_190_,X_INTRODUCED_189_,X_INTRODUCED_200_,X_INTRODUCED_199_,X_INTRODUCED_198_,X_INTRODUCED_197_,X_INTRODUCED_196_,X_INTRODUCED_195_,X_INTRODUCED_194_,X_INTRODUCED_193_],true);
constraint int_lin_eq_reif(X_INTRODUCED_1_,[X_INTRODUCED_2_,X_INTRODUCED_4_],-1,X_INTRODUCED_6_):: defines_var(X_INTRODUCED_6_);
constraint int_eq_reif(X_INTRODUCED_8_,X_INTRODUCED_10_,X_INTRODUCED_11_):: defines_var(X_INTRODUCED_11_);
constraint int_eq_reif(X_INTRODUCED_12_,X_INTRODUCED_13_,X_INTRODUCED_14_):: defines_var(X_INTRODUCED_14_);
constraint int_eq_reif(X_INTRODUCED_15_,X_INTRODUCED_4_,X_INTRODUCED_16_):: defines_var(X_INTRODUCED_16_);
constraint int_eq_reif(X_INTRODUCED_18_,X_INTRODUCED_10_,X_INTRODUCED_19_):: defines_var(X_INTRODUCED_19_);
constraint int_lin_eq_reif(X_INTRODUCED_1_,[X_INTRODUCED_20_,X_INTRODUCED_13_],-1,X_INTRODUCED_22_):: defines_var(X_INTRODUCED_22_);
constraint int_eq_reif(X_INTRODUCED_23_,X_INTRODUCED_4_,X_INTRODUCED_24_):: defines_var(X_INTRODUCED_24_);
constraint int_lin_eq_reif(X_INTRODUCED_1_,[X_INTRODUCED_26_,X_INTRODUCED_10_],-1,X_INTRODUCED_28_):: defines_var(X_INTRODUCED_28_);
constraint int_lin_eq_reif(X_INTRODUCED_1_,[X_INTRODUCED_29_,X_INTRODUCED_13_],-1,X_INTRODUCED_30_):: defines_var(X_INTRODUCED_30_);
constraint int_lin_eq_reif(X_INTRODUCED_1_,[X_INTRODUCED_31_,X_INTRODUCED_4_],-1,X_INTRODUCED_32_):: defines_var(X_INTRODUCED_32_);
constraint int_eq_reif(X_INTRODUCED_34_,X_INTRODUCED_10_,X_INTRODUCED_35_):: defines_var(X_INTRODUCED_35_);
constraint int_lin_eq_reif(X_INTRODUCED_1_,[X_INTRODUCED_36_,X_INTRODUCED_13_],1,X_INTRODUCED_38_):: defines_var(X_INTRODUCED_38_);
constraint array_bool_and([X_INTRODUCED_14_,X_INTRODUCED_11_,X_INTRODUCED_6_,X_INTRODUCED_38_,X_INTRODUCED_35_,X_INTRODUCED_32_,X_INTRODUCED_30_,X_INTRODUCED_28_,X_INTRODUCED_24_,X_INTRODUCED_22_,X_INTRODUCED_19_,X_INTRODUCED_16_],X_INTRODUCED_39_):: defines_var(X_INTRODUCED_39_);
constraint int_eq_reif(X_INTRODUCED_2_,X_INTRODUCED_4_,X_INTRODUCED_40_):: defines_var(X_INTRODUCED_40_);
constraint int_lin_eq_reif(X_INTRODUCED_1_,[X_INTRODUCED_12_,X_INTRODUCED_13_],1,X_INTRODUCED_41_):: defines_var(X_INTRODUCED_41_);
constraint int_lin_eq_reif(X_INTRODUCED_1_,[X_INTRODUCED_18_,X_INTRODUCED_10_],1,X_INTRODUCED_43_):: defines_var(X_INTRODUCED_43_);
constraint int_eq_reif(X_INTRODUCED_20_,X_INTRODUCED_13_,X_INTRODUCED_44_):: defines_var(X_INTRODUCED_44_);
constraint int_lin_eq_reif(X_INTRODUCED_1_,[X_INTRODUCED_23_,X_INTRODUCED_4_],-1,X_INTRODUCED_45_):: defines_var(X_INTRODUCED_45_);
constraint int_lin_eq_reif(X_INTRODUCED_1_,[X_INTRODUCED_26_,X_INTRODUCED_10_],1,X_INTRODUCED_46_):: defines_var(X_INTRODUCED_46_);
constraint int_eq_reif(X_INTRODUCED_29_,X_INTRODUCED_13_,X_INTRODUCED_47_):: defines_var(X_INTRODUCED_47_);
constraint int_eq_reif(X_INTRODUCED_31_,X_INTRODUCED_4_,X_INTRODUCED_48_):: defines_var(X_INTRODUCED_48_);
constraint int_lin_eq_reif(X_INTRODUCED_1_,[X_INTRODUCED_34_,X_INTRODUCED_10_],-1,X_INTRODUCED_49_):: defines_var(X_INTRODUCED_49_);
constraint array_bool_and([X_INTRODUCED_11_,X_INTRODUCED_49_,X_INTRODUCED_48_,X_INTRODUCED_47_,X_INTRODUCED_46_,X_INTRODUCED_45_,X_INTRODUCED_44_,X_INTRODUCED_43_,X_INTRODUCED_41_,X_INTRODUCED_40_,X_INTRODUCED_38_,X_INTRODUCED_16_],X_INTRODUCED_50_):: defines_var(X_INTRODUCED_50_);
constraint int_lin_eq_reif(X_INTRODUCED_1_,[X_INTRODUCED_15_,X_INTRODUCED_4_],-1,X_INTRODUCED_51_):: defines_var(X_INTRODUCED_51_);
constraint int_lin_eq_reif(X_INTRODUCED_1_,[X_INTRODUCED_31_,X_INTRODUCED_4_],1,X_INTRODUCED_53_):: defines_var(X_INTRODUCED_53_);
constraint array_bool_and([X_INTRODUCED_11_,X_INTRODUCED_53_,X_INTRODUCED_51_,X_INTRODUCED_47_,X_INTRODUCED_45_,X_INTRODUCED_44_,X_INTRODUCED_41_,X_INTRODUCED_40_,X_INTRODUCED_38_,X_INTRODUCED_35_,X_INTRODUCED_28_,X_INTRODUCED_19_],X_INTRODUCED_54_):: defines_var(X_INTRODUCED_54_);
constraint int_lin_eq_reif(X_INTRODUCED_1_,[X_INTRODUCED_8_,X_INTRODUCED_10_],1,X_INTRODUCED_55_):: defines_var(X_INTRODUCED_55_);
constraint int_eq_reif(X_INTRODUCED_26_,X_INTRODUCED_10_,X_INTRODUCED_56_):: defines_var(X_INTRODUCED_56_);
constraint int_lin_eq_reif(X_INTRODUCED_1_,[X_INTRODUCED_29_,X_INTRODUCED_13_],1,X_INTRODUCED_57_):: defines_var(X_INTRODUCED_57_);
constraint int_lin_eq_reif(X_INTRODUCED_1_,[X_INTRODUCED_34_,X_INTRODUCED_10_],1,X_INTRODUCED_58_):: defines_var(X_INTRODUCED_58_);
constraint int_eq_reif(X_INTRODUCED_36_,X_INTRODUCED_13_,X_INTRODUCED_59_):: defines_var(X_INTRODUCED_59_);
constraint array_bool_and([X_INTRODUCED_14_,X_INTRODUCED_59_,X_INTRODUCED_58_,X_INTRODUCED_57_,X_INTRODUCED_56_,X_INTRODUCED_55_,X_INTRODUCED_53_,X_INTRODUCED_51_,X_INTRODUCED_45_,X_INTRODUCED_44_,X_INTRODUCED_40_,X_INTRODUCED_19_],X_INTRODUCED_60_):: defines_var(X_INTRODUCED_60_);
constraint int_lin_eq_reif(X_INTRODUCED_1_,[X_INTRODUCED_12_,X_INTRODUCED_13_],-1,X_INTRODUCED_61_):: defines_var(X_INTRODUCED_61_);
constraint int_lin_eq_reif(X_INTRODUCED_1_,[X_INTRODUCED_15_,X_INTRODUCED_4_],1,X_INTRODUCED_62_):: defines_var(X_INTRODUCED_62_);
constraint int_lin_eq_reif(X_INTRODUCED_1_,[X_INTRODUCED_23_,X_INTRODUCED_4_],1,X_INTRODUCED_63_):: defines_var(X_INTRODUCED_63_);
constraint int_lin_eq_reif(X_INTRODUCED_1_,[X_INTRODUCED_36_,X_INTRODUCED_13_],-1,X_INTRODUCED_64_):: defines_var(X_INTRODUCED_64_);
constraint int_lin_eq_reif(X_INTRODUCED_1_,[X_INTRODUCED_18_,X_INTRODUCED_10_],-1,X_INTRODUCED_67_):: defines_var(X_INTRODUCED_67_);
constraint array_bool_and([X_INTRODUCED_14_,X_INTRODUCED_11_,X_INTRODUCED_6_,X_INTRODUCED_67_,X_INTRODUCED_59_,X_INTRODUCED_58_,X_INTRODUCED_57_,X_INTRODUCED_44_,X_INTRODUCED_32_,X_INTRODUCED_28_,X_INTRODUCED_24_,X_INTRODUCED_16_],X_INTRODUCED_68_):: defines_var(X_INTRODUCED_68_);
constraint int_lin_eq_reif(X_INTRODUCED_1_,[X_INTRODUCED_2_,X_INTRODUCED_4_],1,X_INTRODUCED_69_):: defines_var(X_INTRODUCED_69_);
constraint array_bool_and([X_INTRODUCED_14_,X_INTRODUCED_11_,X_INTRODUCED_69_,X_INTRODUCED_53_,X_INTRODUCED_46_,X_INTRODUCED_38_,X_INTRODUCED_35_,X_INTRODUCED_30_,X_INTRODUCED_24_,X_INTRODUCED_22_,X_INTRODUCED_19_,X_INTRODUCED_16_],X_INTRODUCED_70_):: defines_var(X_INTRODUCED_70_);
constraint array_bool_and([X_INTRODUCED_14_,X_INTRODUCED_58_,X_INTRODUCED_56_,X_INTRODUCED_55_,X_INTRODUCED_48_,X_INTRODUCED_45_,X_INTRODUCED_40_,X_INTRODUCED_38_,X_INTRODUCED_30_,X_INTRODUCED_22_,X_INTRODUCED_19_,X_INTRODUCED_16_],X_INTRODUCED_71_):: defines_var(X_INTRODUCED_71_);
constraint array_bool_and([X_INTRODUCED_11_,X_INTRODUCED_67_,X_INTRODUCED_64_,X_INTRODUCED_61_,X_INTRODUCED_58_,X_INTRODUCED_48_,X_INTRODUCED_47_,X_INTRODUCED_45_,X_INTRODUCED_44_,X_INTRODUCED_40_,X_INTRODUCED_28_,X_INTRODUCED_16_],X_INTRODUCED_72_):: defines_var(X_INTRODUCED_72_);
constraint int_lin_eq_reif(X_INTRODUCED_1_,[X_INTRODUCED_8_,X_INTRODUCED_10_],-1,X_INTRODUCED_73_):: defines_var(X_INTRODUCED_73_);
constraint array_bool_and([X_INTRODUCED_14_,X_INTRODUCED_73_,X_INTRODUCED_63_,X_INTRODUCED_56_,X_INTRODUCED_49_,X_INTRODUCED_48_,X_INTRODUCED_40_,X_INTRODUCED_38_,X_INTRODUCED_30_,X_INTRODUCED_22_,X_INTRODUCED_19_,X_INTRODUCED_16_],X_INTRODUCED_74_):: defines_var(X_INTRODUCED_74_);
constraint array_bool_and([X_INTRODUCED_14_,X_INTRODUCED_11_,X_INTRODUCED_69_,X_INTRODUCED_67_,X_INTRODUCED_59_,X_INTRODUCED_58_,X_INTRODUCED_53_,X_INTRODUCED_44_,X_INTRODUCED_30_,X_INTRODUCED_28_,X_INTRODUCED_24_,X_INTRODUCED_16_],X_INTRODUCED_75_):: defines_var(X_INTRODUCED_75_);
constraint int_lin_eq_reif(X_INTRODUCED_1_,[X_INTRODUCED_20_,X_INTRODUCED_13_],1,X_INTRODUCED_78_):: defines_var(X_INTRODUCED_78_);
constraint array_bool_and([X_INTRODUCED_14_,X_INTRODUCED_11_,X_INTRODUCED_78_,X_INTRODUCED_69_,X_INTRODUCED_64_,X_INTRODUCED_57_,X_INTRODUCED_53_,X_INTRODUCED_35_,X_INTRODUCED_28_,X_INTRODUCED_24_,X_INTRODUCED_19_,X_INTRODUCED_16_],X_INTRODUCED_79_):: defines_var(X_INTRODUCED_79_);
constraint array_bool_and([X_INTRODUCED_14_,X_INTRODUCED_11_,X_INTRODUCED_6_,X_INTRODUCED_59_,X_INTRODUCED_49_,X_INTRODUCED_46_,X_INTRODUCED_44_,X_INTRODUCED_43_,X_INTRODUCED_32_,X_INTRODUCED_30_,X_INTRODUCED_24_,X_INTRODUCED_16_],X_INTRODUCED_80_):: defines_var(X_INTRODUCED_80_);
constraint array_bool_and([X_INTRODUCED_14_,X_INTRODUCED_78_,X_INTRODUCED_73_,X_INTRODUCED_64_,X_INTRODUCED_57_,X_INTRODUCED_56_,X_INTRODUCED_49_,X_INTRODUCED_48_,X_INTRODUCED_45_,X_INTRODUCED_40_,X_INTRODUCED_19_,X_INTRODUCED_16_],X_INTRODUCED_81_):: defines_var(X_INTRODUCED_81_);
constraint array_bool_and([X_INTRODUCED_11_,X_INTRODUCED_64_,X_INTRODUCED_63_,X_INTRODUCED_61_,X_INTRODUCED_49_,X_INTRODUCED_48_,X_INTRODUCED_47_,X_INTRODUCED_46_,X_INTRODUCED_44_,X_INTRODUCED_43_,X_INTRODUCED_40_,X_INTRODUCED_16_],X_INTRODUCED_82_):: defines_var(X_INTRODUCED_82_);
constraint array_bool_and([X_INTRODUCED_14_,X_INTRODUCED_11_,X_INTRODUCED_6_,X_INTRODUCED_78_,X_INTRODUCED_64_,X_INTRODUCED_57_,X_INTRODUCED_46_,X_INTRODUCED_35_,X_INTRODUCED_32_,X_INTRODUCED_24_,X_INTRODUCED_19_,X_INTRODUCED_16_],X_INTRODUCED_83_):: defines_var(X_INTRODUCED_83_);
constraint array_bool_and([X_INTRODUCED_14_,X_INTRODUCED_78_,X_INTRODUCED_64_,X_INTRODUCED_63_,X_INTRODUCED_58_,X_INTRODUCED_57_,X_INTRODUCED_56_,X_INTRODUCED_55_,X_INTRODUCED_48_,X_INTRODUCED_40_,X_INTRODUCED_19_,X_INTRODUCED_16_],X_INTRODUCED_84_):: defines_var(X_INTRODUCED_84_);
constraint array_bool_and([X_INTRODUCED_11_,X_INTRODUCED_67_,X_INTRODUCED_63_,X_INTRODUCED_58_,X_INTRODUCED_48_,X_INTRODUCED_47_,X_INTRODUCED_44_,X_INTRODUCED_41_,X_INTRODUCED_40_,X_INTRODUCED_38_,X_INTRODUCED_28_,X_INTRODUCED_16_],X_INTRODUCED_87_):: defines_var(X_INTRODUCED_87_);
constraint array_bool_and([X_INTRODUCED_14_,X_INTRODUCED_11_,X_INTRODUCED_69_,X_INTRODUCED_59_,X_INTRODUCED_57_,X_INTRODUCED_53_,X_INTRODUCED_49_,X_INTRODUCED_46_,X_INTRODUCED_44_,X_INTRODUCED_43_,X_INTRODUCED_24_,X_INTRODUCED_16_],X_INTRODUCED_90_):: defines_var(X_INTRODUCED_90_);
constraint int_eq_reif(X_INTRODUCED_95_,X_INTRODUCED_96_,X_INTRODUCED_97_):: defines_var(X_INTRODUCED_97_);
constraint int_eq_reif(X_INTRODUCED_99_,X_INTRODUCED_101_,X_INTRODUCED_102_):: defines_var(X_INTRODUCED_102_);
constraint int_lin_eq_reif(X_INTRODUCED_1_,[X_INTRODUCED_103_,X_INTRODUCED_104_],1,X_INTRODUCED_106_):: defines_var(X_INTRODUCED_106_);
constraint int_eq_reif(X_INTRODUCED_107_,X_INTRODUCED_96_,X_INTRODUCED_108_):: defines_var(X_INTRODUCED_108_);
constraint int_eq_reif(X_INTRODUCED_110_,X_INTRODUCED_101_,X_INTRODUCED_111_):: defines_var(X_INTRODUCED_111_);
constraint int_lin_eq_reif(X_INTRODUCED_1_,[X_INTRODUCED_112_,X_INTRODUCED_104_],2,X_INTRODUCED_114_):: defines_var(X_INTRODUCED_114_);
constraint array_bool_and([X_INTRODUCED_114_,X_INTRODUCED_111_,X_INTRODUCED_108_,X_INTRODUCED_106_,X_INTRODUCED_102_,X_INTRODUCED_97_],X_INTRODUCED_115_):: defines_var(X_INTRODUCED_115_);
constraint int_lin_eq_reif(X_INTRODUCED_1_,[X_INTRODUCED_103_,X_INTRODUCED_104_],-1,X_INTRODUCED_117_):: defines_var(X_INTRODUCED_117_);
constraint int_lin_eq_reif(X_INTRODUCED_1_,[X_INTRODUCED_112_,X_INTRODUCED_104_],-2,X_INTRODUCED_119_):: defines_var(X_INTRODUCED_119_);
constraint array_bool_and([X_INTRODUCED_119_,X_INTRODUCED_117_,X_INTRODUCED_111_,X_INTRODUCED_108_,X_INTRODUCED_102_,X_INTRODUCED_97_],X_INTRODUCED_120_):: defines_var(X_INTRODUCED_120_);
constraint int_eq_reif(X_INTRODUCED_103_,X_INTRODUCED_104_,X_INTRODUCED_123_):: defines_var(X_INTRODUCED_123_);
constraint int_lin_eq_reif(X_INTRODUCED_1_,[X_INTRODUCED_99_,X_INTRODUCED_101_],-1,X_INTRODUCED_127_):: defines_var(X_INTRODUCED_127_);
constraint int_lin_eq_reif(X_INTRODUCED_1_,[X_INTRODUCED_110_,X_INTRODUCED_101_],-2,X_INTRODUCED_129_):: defines_var(X_INTRODUCED_129_);
constraint int_eq_reif(X_INTRODUCED_112_,X_INTRODUCED_104_,X_INTRODUCED_130_):: defines_var(X_INTRODUCED_130_);
constraint array_bool_and([X_INTRODUCED_130_,X_INTRODUCED_129_,X_INTRODUCED_127_,X_INTRODUCED_123_,X_INTRODUCED_108_,X_INTRODUCED_97_],X_INTRODUCED_131_):: defines_var(X_INTRODUCED_131_);
constraint int_lin_eq_reif(X_INTRODUCED_1_,[X_INTRODUCED_99_,X_INTRODUCED_101_],1,X_INTRODUCED_133_):: defines_var(X_INTRODUCED_133_);
constraint int_lin_eq_reif(X_INTRODUCED_1_,[X_INTRODUCED_110_,X_INTRODUCED_101_],2,X_INTRODUCED_135_):: defines_var(X_INTRODUCED_135_);
constraint array_bool_and([X_INTRODUCED_135_,X_INTRODUCED_133_,X_INTRODUCED_130_,X_INTRODUCED_123_,X_INTRODUCED_108_,X_INTRODUCED_97_],X_INTRODUCED_136_):: defines_var(X_INTRODUCED_136_);
constraint int_eq_reif(X_INTRODUCED_141_,X_INTRODUCED_142_,X_INTRODUCED_143_):: defines_var(X_INTRODUCED_143_);
constraint int_eq_reif(X_INTRODUCED_145_,X_INTRODUCED_147_,X_INTRODUCED_148_):: defines_var(X_INTRODUCED_148_);
constraint int_lin_eq_reif(X_INTRODUCED_1_,[X_INTRODUCED_149_,X_INTRODUCED_150_],-1,X_INTRODUCED_152_):: defines_var(X_INTRODUCED_152_);
constraint int_lin_eq_reif(X_INTRODUCED_1_,[X_INTRODUCED_153_,X_INTRODUCED_142_],1,X_INTRODUCED_155_):: defines_var(X_INTRODUCED_155_);
constraint int_eq_reif(X_INTRODUCED_157_,X_INTRODUCED_147_,X_INTRODUCED_158_):: defines_var(X_INTRODUCED_158_);
constraint int_eq_reif(X_INTRODUCED_159_,X_INTRODUCED_150_,X_INTRODUCED_160_):: defines_var(X_INTRODUCED_160_);
constraint array_bool_and([X_INTRODUCED_160_,X_INTRODUCED_158_,X_INTRODUCED_155_,X_INTRODUCED_152_,X_INTRODUCED_148_,X_INTRODUCED_143_],X_INTRODUCED_161_):: defines_var(X_INTRODUCED_161_);
constraint int_lin_eq_reif(X_INTRODUCED_1_,[X_INTRODUCED_141_,X_INTRODUCED_142_],-1,X_INTRODUCED_163_):: defines_var(X_INTRODUCED_163_);
constraint int_eq_reif(X_INTRODUCED_149_,X_INTRODUCED_150_,X_INTRODUCED_164_):: defines_var(X_INTRODUCED_164_);
constraint int_eq_reif(X_INTRODUCED_153_,X_INTRODUCED_142_,X_INTRODUCED_165_):: defines_var(X_INTRODUCED_165_);
constraint int_lin_eq_reif(X_INTRODUCED_1_,[X_INTRODUCED_157_,X_INTRODUCED_147_],1,X_INTRODUCED_167_):: defines_var(X_INTRODUCED_167_);
constraint array_bool_and([X_INTRODUCED_167_,X_INTRODUCED_165_,X_INTRODUCED_164_,X_INTRODUCED_163_,X_INTRODUCED_160_,X_INTRODUCED_148_],X_INTRODUCED_168_):: defines_var(X_INTRODUCED_168_);
constraint int_lin_eq_reif(X_INTRODUCED_1_,[X_INTRODUCED_159_,X_INTRODUCED_150_],-1,X_INTRODUCED_169_):: defines_var(X_INTRODUCED_169_);
constraint array_bool_and([X_INTRODUCED_169_,X_INTRODUCED_165_,X_INTRODUCED_164_,X_INTRODUCED_163_,X_INTRODUCED_158_,X_INTRODUCED_148_],X_INTRODUCED_170_):: defines_var(X_INTRODUCED_170_);
constraint int_lin_eq_reif(X_INTRODUCED_1_,[X_INTRODUCED_145_,X_INTRODUCED_147_],1,X_INTRODUCED_171_):: defines_var(X_INTRODUCED_171_);
constraint int_lin_eq_reif(X_INTRODUCED_1_,[X_INTRODUCED_153_,X_INTRODUCED_142_],-1,X_INTRODUCED_172_):: defines_var(X_INTRODUCED_172_);
constraint array_bool_and([X_INTRODUCED_172_,X_INTRODUCED_171_,X_INTRODUCED_164_,X_INTRODUCED_160_,X_INTRODUCED_158_,X_INTRODUCED_143_],X_INTRODUCED_173_):: defines_var(X_INTRODUCED_173_);
constraint int_lin_eq_reif(X_INTRODUCED_1_,[X_INTRODUCED_159_,X_INTRODUCED_150_],1,X_INTRODUCED_175_):: defines_var(X_INTRODUCED_175_);
constraint array_bool_and([X_INTRODUCED_175_,X_INTRODUCED_171_,X_INTRODUCED_165_,X_INTRODUCED_164_,X_INTRODUCED_158_,X_INTRODUCED_143_],X_INTRODUCED_176_):: defines_var(X_INTRODUCED_176_);
constraint int_lin_eq_reif(X_INTRODUCED_1_,[X_INTRODUCED_145_,X_INTRODUCED_147_],-1,X_INTRODUCED_178_):: defines_var(X_INTRODUCED_178_);
constraint array_bool_and([X_INTRODUCED_178_,X_INTRODUCED_172_,X_INTRODUCED_164_,X_INTRODUCED_160_,X_INTRODUCED_158_,X_INTRODUCED_143_],X_INTRODUCED_179_):: defines_var(X_INTRODUCED_179_);
constraint array_bool_and([X_INTRODUCED_178_,X_INTRODUCED_175_,X_INTRODUCED_165_,X_INTRODUCED_164_,X_INTRODUCED_158_,X_INTRODUCED_143_],X_INTRODUCED_180_):: defines_var(X_INTRODUCED_180_);
constraint array_bool_and([X_INTRODUCED_171_,X_INTRODUCED_164_,X_INTRODUCED_160_,X_INTRODUCED_158_,X_INTRODUCED_155_,X_INTRODUCED_143_],X_INTRODUCED_181_):: defines_var(X_INTRODUCED_181_);
constraint int_lin_eq_reif(X_INTRODUCED_1_,[X_INTRODUCED_141_,X_INTRODUCED_142_],1,X_INTRODUCED_182_):: defines_var(X_INTRODUCED_182_);
constraint array_bool_and([X_INTRODUCED_182_,X_INTRODUCED_175_,X_INTRODUCED_165_,X_INTRODUCED_164_,X_INTRODUCED_158_,X_INTRODUCED_148_],X_INTRODUCED_183_):: defines_var(X_INTRODUCED_183_);
constraint array_bool_and([X_INTRODUCED_178_,X_INTRODUCED_164_,X_INTRODUCED_160_,X_INTRODUCED_158_,X_INTRODUCED_155_,X_INTRODUCED_143_],X_INTRODUCED_184_):: defines_var(X_INTRODUCED_184_);
constraint int_lin_eq_reif(X_INTRODUCED_1_,[X_INTRODUCED_149_,X_INTRODUCED_150_],1,X_INTRODUCED_185_):: defines_var(X_INTRODUCED_185_);
constraint int_lin_eq_reif(X_INTRODUCED_1_,[X_INTRODUCED_157_,X_INTRODUCED_147_],-1,X_INTRODUCED_186_):: defines_var(X_INTRODUCED_186_);
constraint array_bool_and([X_INTRODUCED_186_,X_INTRODUCED_185_,X_INTRODUCED_165_,X_INTRODUCED_160_,X_INTRODUCED_148_,X_INTRODUCED_143_],X_INTRODUCED_187_):: defines_var(X_INTRODUCED_187_);
constraint array_bool_and([X_INTRODUCED_185_,X_INTRODUCED_167_,X_INTRODUCED_165_,X_INTRODUCED_160_,X_INTRODUCED_148_,X_INTRODUCED_143_],X_INTRODUCED_188_):: defines_var(X_INTRODUCED_188_);
constraint array_bool_and([X_INTRODUCED_175_,X_INTRODUCED_165_,X_INTRODUCED_164_,X_INTRODUCED_163_,X_INTRODUCED_158_,X_INTRODUCED_148_],X_INTRODUCED_189_):: defines_var(X_INTRODUCED_189_);
constraint array_bool_and([X_INTRODUCED_186_,X_INTRODUCED_165_,X_INTRODUCED_160_,X_INTRODUCED_152_,X_INTRODUCED_148_,X_INTRODUCED_143_],X_INTRODUCED_190_):: defines_var(X_INTRODUCED_190_);
constraint array_bool_and([X_INTRODUCED_167_,X_INTRODUCED_165_,X_INTRODUCED_160_,X_INTRODUCED_152_,X_INTRODUCED_148_,X_INTRODUCED_143_],X_INTRODUCED_191_):: defines_var(X_INTRODUCED_191_);
constraint array_bool_and([X_INTRODUCED_185_,X_INTRODUCED_172_,X_INTRODUCED_160_,X_INTRODUCED_158_,X_INTRODUCED_148_,X_INTRODUCED_143_],X_INTRODUCED_192_):: defines_var(X_INTRODUCED_192_);
constraint array_bool_and([X_INTRODUCED_171_,X_INTRODUCED_169_,X_INTRODUCED_165_,X_INTRODUCED_164_,X_INTRODUCED_158_,X_INTRODUCED_143_],X_INTRODUCED_193_):: defines_var(X_INTRODUCED_193_);
constraint array_bool_and([X_INTRODUCED_186_,X_INTRODUCED_182_,X_INTRODUCED_165_,X_INTRODUCED_164_,X_INTRODUCED_160_,X_INTRODUCED_148_],X_INTRODUCED_194_):: defines_var(X_INTRODUCED_194_);
constraint array_bool_and([X_INTRODUCED_182_,X_INTRODUCED_167_,X_INTRODUCED_165_,X_INTRODUCED_164_,X_INTRODUCED_160_,X_INTRODUCED_148_],X_INTRODUCED_195_):: defines_var(X_INTRODUCED_195_);
constraint array_bool_and([X_INTRODUCED_178_,X_INTRODUCED_169_,X_INTRODUCED_165_,X_INTRODUCED_164_,X_INTRODUCED_158_,X_INTRODUCED_143_],X_INTRODUCED_196_):: defines_var(X_INTRODUCED_196_);
constraint array_bool_and([X_INTRODUCED_182_,X_INTRODUCED_169_,X_INTRODUCED_165_,X_INTRODUCED_164_,X_INTRODUCED_158_,X_INTRODUCED_148_],X_INTRODUCED_197_):: defines_var(X_INTRODUCED_197_);
constraint array_bool_and([X_INTRODUCED_172_,X_INTRODUCED_160_,X_INTRODUCED_158_,X_INTRODUCED_152_,X_INTRODUCED_148_,X_INTRODUCED_143_],X_INTRODUCED_198_):: defines_var(X_INTRODUCED_198_);
constraint array_bool_and([X_INTRODUCED_185_,X_INTRODUCED_160_,X_INTRODUCED_158_,X_INTRODUCED_155_,X_INTRODUCED_148_,X_INTRODUCED_143_],X_INTRODUCED_199_):: defines_var(X_INTRODUCED_199_);
constraint array_bool_and([X_INTRODUCED_186_,X_INTRODUCED_165_,X_INTRODUCED_164_,X_INTRODUCED_163_,X_INTRODUCED_160_,X_INTRODUCED_148_],X_INTRODUCED_200_):: defines_var(X_INTRODUCED_200_);
solve  satisfy;
